TCS_Benchmarks/redos_fix/corpus1_output_distinct_2478_2477_124_0.txt
(\d*)((h|hr|hrs|mins|min)+)
(\d*)(.?\d+.)((h|hr|hrs|mins|min)+)